% seed = 1889737

mint = 42;
% maxt = 102;

nActs = 22;
dur = [0,1,4,3,6,6,4,7,1,6,9,3,3,6,6,6,8,5,2,7,9,0];

nSkills = 4;
sreq = [| 0,0,0,0,
	| 2,1,0,2,
	| 2,2,0,2,
	| 1,3,0,2,
	| 3,0,1,2,
	| 3,0,1,3,
	| 2,1,0,2,
	| 0,2,2,2,
	| 1,0,1,3,
	| 0,2,3,3,
	| 1,0,3,3,
	| 1,0,2,2,
	| 0,3,2,1,
	| 2,2,0,2,
	| 2,1,0,2,
	| 2,1,1,0,
	| 2,0,3,3,
	| 2,2,2,0,
	| 1,3,0,3,
	| 3,1,0,2,
	| 2,2,2,0,
	| 0,0,0,0, |];

nResources = 10;
mastery = [| true,false,false,true,
	| false,true,true,true,
	| true,false,false,false,
	| true,true,true,false,
	| false,false,true,false,
	| true,false,true,false,
	| true,false,false,false,
	| true,true,false,false,
	| true,false,true,true,
	| true,false,true,true, |];

nPrecs = 43;
pred = [1,1,1,2,2,2,3,3,3,4,4,4,5,6,6,6,7,7,8,8,8,9,9,10,10,11,11,11,12,13,13,14,14,14,15,15,15,16,17,18,19,20,21];
succ = [2,3,4,10,13,8,17,5,7,5,6,8,21,12,13,15,10,19,9,11,14,15,16,20,12,12,15,16,18,18,19,17,20,16,17,19,20,18,21,21,22,22,22];

nUnrels = 89;
unpred = [2,2,2,2,2,3,3,3,3,3,3,3,3,3,4,4,5,5,5,5,5,5,5,5,5,5,5,5,5,5,5,6,6,6,6,6,6,6,7,7,7,7,7,7,7,7,8,8,9,9,9,9,9,10,10,10,10,10,10,10,11,11,12,12,12,12,12,12,12,13,13,13,13,13,14,14,15,15,16,16,16,17,17,17,18,18,19,19,20];
unsucc = [3,4,5,6,7,4,6,8,9,11,13,14,15,16,7,10,6,7,8,9,10,11,12,13,14,15,16,17,18,19,20,7,8,9,10,11,14,16,8,9,11,13,14,15,16,17,10,13,10,11,12,13,14,11,13,14,15,16,17,19,13,14,13,14,15,16,17,19,20,14,15,16,17,20,15,19,16,18,17,19,20,18,19,20,19,20,20,21,21];

USEFUL_RES = [{},
	{1,2,3,4,6,7,8,9,10},
	{1,2,3,4,6,7,8,9,10},
	{1,2,3,4,6,7,8,9,10},
	{1,2,3,4,5,6,7,8,9,10},
	{1,2,3,4,5,6,7,8,9,10},
	{1,2,3,4,6,7,8,9,10},
	{1,2,4,5,6,8,9,10},
	{1,2,3,4,5,6,7,8,9,10},
	{1,2,4,5,6,8,9,10},
	{1,2,3,4,5,6,7,8,9,10},
	{1,2,3,4,5,6,7,8,9,10},
	{1,2,4,5,6,8,9,10},
	{1,2,3,4,6,7,8,9,10},
	{1,2,3,4,6,7,8,9,10},
	{1,2,3,4,5,6,7,8,9,10},
	{1,2,3,4,5,6,7,8,9,10},
	{1,2,3,4,5,6,7,8,9,10},
	{1,2,3,4,6,7,8,9,10},
	{1,2,3,4,6,7,8,9,10},
	{1,2,3,4,5,6,7,8,9,10},
	{}];

POTENTIAL_ACT = [{2,3,4,5,6,7,8,9,10,11,12,13,14,15,16,17,18,19,20,21},
	{2,3,4,5,6,7,8,9,10,11,12,13,14,15,16,17,18,19,20,21},
	{2,3,4,5,6,7,9,11,12,14,15,16,17,18,19,20,21},
	{2,3,4,5,6,7,8,9,10,11,12,13,14,15,16,17,18,19,20,21},
	{5,6,8,9,10,11,12,13,16,17,18,21},
	{2,3,4,5,6,7,8,9,10,11,12,13,14,15,16,17,18,19,20,21},
	{2,3,4,5,6,7,9,11,12,14,15,16,17,18,19,20,21},
	{2,3,4,5,6,7,8,9,10,11,12,13,14,15,16,17,18,19,20,21},
	{2,3,4,5,6,7,8,9,10,11,12,13,14,15,16,17,18,19,20,21},
	{2,3,4,5,6,7,8,9,10,11,12,13,14,15,16,17,18,19,20,21}];
